50
120
97
97
95
91
91
89
85
85
82
82
81
75
74
73
70
70
70
69
68
67
67
67
65
63
63
63
62
61
60
60
55
48
46
45
45
45
45
44
43
43
42
41
39
37
36
30
28
22
22
22
